p cnf 616 1651
a 14 9 40 67 94 121 148 175 202 229 256 283 310 337 364 391 418 445 472 510 13 8 39 66 93 120 147 174 201 228 255 282 309 336 363 390 417 444 471 502 607 1 3 0
e 32 23 58 85 112 139 166 193 220 247 274 301 328 355 382 409 436 463 490 517 6 7 606 2 4 5 10 11 12 15 16 17 18 19 20 21 22 24 25 26 27 28 29 30 31 33 34 35 36 37 38 41 42 43 44 45 46 47 48 49 50 51 52 53 54 55 56 57 59 60 61 62 63 64 65 68 69 70 71 72 73 74 75 76 77 78 79 80 81 82 83 84 86 87 88 89 90 91 92 95 96 97 98 99 100 101 102 103 104 105 106 107 108 109 110 111 113 114 115 116 117 118 119 122 123 124 125 126 127 128 129 130 131 132 133 134 135 136 137 138 140 141 142 143 144 145 146 149 150 151 152 153 154 155 156 157 158 159 160 161 162 163 164 165 167 168 169 170 171 172 173 176 177 178 179 180 181 182 183 184 185 186 187 188 189 190 191 192 194 195 196 197 198 199 200 203 204 205 206 207 208 209 210 211 212 213 214 215 216 217 218 219 221 222 223 224 225 226 227 230 231 232 233 234 235 236 237 238 239 240 241 242 243 244 245 246 248 249 250 251 252 253 254 257 258 259 260 261 262 263 264 265 266 267 268 269 270 271 272 273 275 276 277 278 279 280 281 284 285 286 287 288 289 290 291 292 293 294 295 296 297 298 299 300 302 303 304 305 306 307 308 311 312 313 314 315 316 317 318 319 320 321 322 323 324 325 326 327 329 330 331 332 333 334 335 338 339 340 341 342 343 344 345 346 347 348 349 350 351 352 353 354 356 357 358 359 360 361 362 365 366 367 368 369 370 371 372 373 374 375 376 377 378 379 380 381 383 384 385 386 387 388 389 392 393 394 395 396 397 398 399 400 401 402 403 404 405 406 407 408 410 411 412 413 414 415 416 419 420 421 422 423 424 425 426 427 428 429 430 431 432 433 434 435 437 438 439 440 441 442 443 446 447 448 449 450 451 452 453 454 455 456 457 458 459 460 461 462 464 465 466 467 468 469 470 473 474 475 476 477 478 479 480 481 482 483 484 485 486 487 488 489 491 492 493 494 495 496 497 498 499 500 501 503 504 505 506 507 508 509 511 512 513 514 515 516 518 519 520 521 522 523 524 525 526 527 528 529 530 531 532 533 534 535 536 537 538 539 540 541 542 543 544 545 546 547 548 549 550 551 552 553 554 555 556 557 558 559 560 561 562 563 564 565 566 567 568 569 570 571 572 573 574 575 576 577 578 579 580 581 582 583 584 585 586 587 588 589 590 591 592 593 594 595 596 597 598 599 600 601 602 603 604 605 608 609 610 611 612 613 614 615 616 0
1 -2 0
-1 2 0
3 -4 0
-3 4 0
-2 5 0
-4 5 0
2 4 -5 0
-8 10 0
9 10 0
8 -9 -10 0
8 11 0
-9 11 0
-8 9 -11 0
10 -12 0
11 -12 0
-10 -11 12 0
13 -15 0
14 -15 0
-13 -14 15 0
-12 16 0
-15 16 0
12 15 -16 0
-8 -17 0
9 -17 0
8 -9 17 0
8 -18 0
-9 -18 0
-8 9 18 0
-17 19 0
-18 19 0
17 18 -19 0
13 20 0
14 20 0
-13 -14 -20 0
-19 21 0
-20 21 0
19 20 -21 0
16 -22 0
21 -22 0
-16 -21 22 0
22 -24 0
23 -24 0
-22 -23 24 0
19 -25 0
20 -25 0
-19 -20 25 0
12 -26 0
15 -26 0
-12 -15 26 0
-25 27 0
-26 27 0
25 26 -27 0
27 -28 0
-23 -28 0
23 -27 28 0
-24 29 0
-28 29 0
24 28 -29 0
-13 -30 0
-14 -30 0
13 14 30 0
-30 31 0
-15 31 0
15 30 -31 0
31 -33 0
32 -33 0
-31 -32 33 0
-13 34 0
-14 34 0
13 14 -34 0
34 -35 0
20 -35 0
-20 -34 35 0
35 -36 0
-32 -36 0
32 -35 36 0
-33 37 0
-36 37 0
33 36 -37 0
-29 38 0
-37 38 0
29 37 -38 0
-39 41 0
40 41 0
39 -40 -41 0
39 42 0
-40 42 0
-39 40 -42 0
41 -43 0
42 -43 0
-41 -42 43 0
-8 -44 0
-9 -44 0
8 9 44 0
-44 45 0
-20 45 0
20 44 -45 0
8 46 0
9 46 0
-8 -9 -46 0
45 -47 0
46 -47 0
-45 -46 47 0
43 -48 0
47 -48 0
-43 -47 48 0
-39 -49 0
40 -49 0
39 -40 49 0
39 -50 0
-40 -50 0
-39 40 50 0
-49 51 0
-50 51 0
49 50 -51 0
-8 52 0
-9 52 0
8 9 -52 0
52 -53 0
15 -53 0
-15 -52 53 0
8 -54 0
9 -54 0
-8 -9 54 0
-53 55 0
-54 55 0
53 54 -55 0
51 -56 0
55 -56 0
-51 -55 56 0
-48 57 0
-56 57 0
48 56 -57 0
57 -59 0
58 -59 0
-57 -58 59 0
-51 60 0
-55 60 0
51 55 -60 0
-43 61 0
-47 61 0
43 47 -61 0
60 -62 0
61 -62 0
-60 -61 62 0
62 -63 0
-58 -63 0
58 -62 63 0
-59 64 0
-63 64 0
59 63 -64 0
-38 65 0
-64 65 0
38 64 -65 0
-66 68 0
67 68 0
66 -67 -68 0
66 69 0
-67 69 0
-66 67 -69 0
68 -70 0
69 -70 0
-68 -69 70 0
-39 -71 0
-40 -71 0
39 40 71 0
-71 72 0
-47 72 0
47 71 -72 0
39 73 0
40 73 0
-39 -40 -73 0
72 -74 0
73 -74 0
-72 -73 74 0
70 -75 0
74 -75 0
-70 -74 75 0
-66 -76 0
67 -76 0
66 -67 76 0
66 -77 0
-67 -77 0
-66 67 77 0
-76 78 0
-77 78 0
76 77 -78 0
-39 79 0
-40 79 0
39 40 -79 0
79 -80 0
55 -80 0
-55 -79 80 0
39 -81 0
40 -81 0
-39 -40 81 0
-80 82 0
-81 82 0
80 81 -82 0
78 -83 0
82 -83 0
-78 -82 83 0
-75 84 0
-83 84 0
75 83 -84 0
84 -86 0
85 -86 0
-84 -85 86 0
-78 87 0
-82 87 0
78 82 -87 0
-70 88 0
-74 88 0
70 74 -88 0
87 -89 0
88 -89 0
-87 -88 89 0
89 -90 0
-85 -90 0
85 -89 90 0
-86 91 0
-90 91 0
86 90 -91 0
-65 92 0
-91 92 0
65 91 -92 0
-93 95 0
94 95 0
93 -94 -95 0
93 96 0
-94 96 0
-93 94 -96 0
95 -97 0
96 -97 0
-95 -96 97 0
-66 -98 0
-67 -98 0
66 67 98 0
-98 99 0
-74 99 0
74 98 -99 0
66 100 0
67 100 0
-66 -67 -100 0
99 -101 0
100 -101 0
-99 -100 101 0
97 -102 0
101 -102 0
-97 -101 102 0
-93 -103 0
94 -103 0
93 -94 103 0
93 -104 0
-94 -104 0
-93 94 104 0
-103 105 0
-104 105 0
103 104 -105 0
-66 106 0
-67 106 0
66 67 -106 0
106 -107 0
82 -107 0
-82 -106 107 0
66 -108 0
67 -108 0
-66 -67 108 0
-107 109 0
-108 109 0
107 108 -109 0
105 -110 0
109 -110 0
-105 -109 110 0
-102 111 0
-110 111 0
102 110 -111 0
111 -113 0
112 -113 0
-111 -112 113 0
-105 114 0
-109 114 0
105 109 -114 0
-97 115 0
-101 115 0
97 101 -115 0
114 -116 0
115 -116 0
-114 -115 116 0
116 -117 0
-112 -117 0
112 -116 117 0
-113 118 0
-117 118 0
113 117 -118 0
-92 119 0
-118 119 0
92 118 -119 0
-120 122 0
121 122 0
120 -121 -122 0
120 123 0
-121 123 0
-120 121 -123 0
122 -124 0
123 -124 0
-122 -123 124 0
-93 -125 0
-94 -125 0
93 94 125 0
-125 126 0
-101 126 0
101 125 -126 0
93 127 0
94 127 0
-93 -94 -127 0
126 -128 0
127 -128 0
-126 -127 128 0
124 -129 0
128 -129 0
-124 -128 129 0
-120 -130 0
121 -130 0
120 -121 130 0
120 -131 0
-121 -131 0
-120 121 131 0
-130 132 0
-131 132 0
130 131 -132 0
-93 133 0
-94 133 0
93 94 -133 0
133 -134 0
109 -134 0
-109 -133 134 0
93 -135 0
94 -135 0
-93 -94 135 0
-134 136 0
-135 136 0
134 135 -136 0
132 -137 0
136 -137 0
-132 -136 137 0
-129 138 0
-137 138 0
129 137 -138 0
138 -140 0
139 -140 0
-138 -139 140 0
-132 141 0
-136 141 0
132 136 -141 0
-124 142 0
-128 142 0
124 128 -142 0
141 -143 0
142 -143 0
-141 -142 143 0
143 -144 0
-139 -144 0
139 -143 144 0
-140 145 0
-144 145 0
140 144 -145 0
-119 146 0
-145 146 0
119 145 -146 0
-147 149 0
148 149 0
147 -148 -149 0
147 150 0
-148 150 0
-147 148 -150 0
149 -151 0
150 -151 0
-149 -150 151 0
-120 -152 0
-121 -152 0
120 121 152 0
-152 153 0
-128 153 0
128 152 -153 0
120 154 0
121 154 0
-120 -121 -154 0
153 -155 0
154 -155 0
-153 -154 155 0
151 -156 0
155 -156 0
-151 -155 156 0
-147 -157 0
148 -157 0
147 -148 157 0
147 -158 0
-148 -158 0
-147 148 158 0
-157 159 0
-158 159 0
157 158 -159 0
-120 160 0
-121 160 0
120 121 -160 0
160 -161 0
136 -161 0
-136 -160 161 0
120 -162 0
121 -162 0
-120 -121 162 0
-161 163 0
-162 163 0
161 162 -163 0
159 -164 0
163 -164 0
-159 -163 164 0
-156 165 0
-164 165 0
156 164 -165 0
165 -167 0
166 -167 0
-165 -166 167 0
-159 168 0
-163 168 0
159 163 -168 0
-151 169 0
-155 169 0
151 155 -169 0
168 -170 0
169 -170 0
-168 -169 170 0
170 -171 0
-166 -171 0
166 -170 171 0
-167 172 0
-171 172 0
167 171 -172 0
-146 173 0
-172 173 0
146 172 -173 0
-174 176 0
175 176 0
174 -175 -176 0
174 177 0
-175 177 0
-174 175 -177 0
176 -178 0
177 -178 0
-176 -177 178 0
-147 -179 0
-148 -179 0
147 148 179 0
-179 180 0
-155 180 0
155 179 -180 0
147 181 0
148 181 0
-147 -148 -181 0
180 -182 0
181 -182 0
-180 -181 182 0
178 -183 0
182 -183 0
-178 -182 183 0
-174 -184 0
175 -184 0
174 -175 184 0
174 -185 0
-175 -185 0
-174 175 185 0
-184 186 0
-185 186 0
184 185 -186 0
-147 187 0
-148 187 0
147 148 -187 0
187 -188 0
163 -188 0
-163 -187 188 0
147 -189 0
148 -189 0
-147 -148 189 0
-188 190 0
-189 190 0
188 189 -190 0
186 -191 0
190 -191 0
-186 -190 191 0
-183 192 0
-191 192 0
183 191 -192 0
192 -194 0
193 -194 0
-192 -193 194 0
-186 195 0
-190 195 0
186 190 -195 0
-178 196 0
-182 196 0
178 182 -196 0
195 -197 0
196 -197 0
-195 -196 197 0
197 -198 0
-193 -198 0
193 -197 198 0
-194 199 0
-198 199 0
194 198 -199 0
-173 200 0
-199 200 0
173 199 -200 0
-201 203 0
202 203 0
201 -202 -203 0
201 204 0
-202 204 0
-201 202 -204 0
203 -205 0
204 -205 0
-203 -204 205 0
-174 -206 0
-175 -206 0
174 175 206 0
-206 207 0
-182 207 0
182 206 -207 0
174 208 0
175 208 0
-174 -175 -208 0
207 -209 0
208 -209 0
-207 -208 209 0
205 -210 0
209 -210 0
-205 -209 210 0
-201 -211 0
202 -211 0
201 -202 211 0
201 -212 0
-202 -212 0
-201 202 212 0
-211 213 0
-212 213 0
211 212 -213 0
-174 214 0
-175 214 0
174 175 -214 0
214 -215 0
190 -215 0
-190 -214 215 0
174 -216 0
175 -216 0
-174 -175 216 0
-215 217 0
-216 217 0
215 216 -217 0
213 -218 0
217 -218 0
-213 -217 218 0
-210 219 0
-218 219 0
210 218 -219 0
219 -221 0
220 -221 0
-219 -220 221 0
-213 222 0
-217 222 0
213 217 -222 0
-205 223 0
-209 223 0
205 209 -223 0
222 -224 0
223 -224 0
-222 -223 224 0
224 -225 0
-220 -225 0
220 -224 225 0
-221 226 0
-225 226 0
221 225 -226 0
-200 227 0
-226 227 0
200 226 -227 0
-228 230 0
229 230 0
228 -229 -230 0
228 231 0
-229 231 0
-228 229 -231 0
230 -232 0
231 -232 0
-230 -231 232 0
-201 -233 0
-202 -233 0
201 202 233 0
-233 234 0
-209 234 0
209 233 -234 0
201 235 0
202 235 0
-201 -202 -235 0
234 -236 0
235 -236 0
-234 -235 236 0
232 -237 0
236 -237 0
-232 -236 237 0
-228 -238 0
229 -238 0
228 -229 238 0
228 -239 0
-229 -239 0
-228 229 239 0
-238 240 0
-239 240 0
238 239 -240 0
-201 241 0
-202 241 0
201 202 -241 0
241 -242 0
217 -242 0
-217 -241 242 0
201 -243 0
202 -243 0
-201 -202 243 0
-242 244 0
-243 244 0
242 243 -244 0
240 -245 0
244 -245 0
-240 -244 245 0
-237 246 0
-245 246 0
237 245 -246 0
246 -248 0
247 -248 0
-246 -247 248 0
-240 249 0
-244 249 0
240 244 -249 0
-232 250 0
-236 250 0
232 236 -250 0
249 -251 0
250 -251 0
-249 -250 251 0
251 -252 0
-247 -252 0
247 -251 252 0
-248 253 0
-252 253 0
248 252 -253 0
-227 254 0
-253 254 0
227 253 -254 0
-255 257 0
256 257 0
255 -256 -257 0
255 258 0
-256 258 0
-255 256 -258 0
257 -259 0
258 -259 0
-257 -258 259 0
-228 -260 0
-229 -260 0
228 229 260 0
-260 261 0
-236 261 0
236 260 -261 0
228 262 0
229 262 0
-228 -229 -262 0
261 -263 0
262 -263 0
-261 -262 263 0
259 -264 0
263 -264 0
-259 -263 264 0
-255 -265 0
256 -265 0
255 -256 265 0
255 -266 0
-256 -266 0
-255 256 266 0
-265 267 0
-266 267 0
265 266 -267 0
-228 268 0
-229 268 0
228 229 -268 0
268 -269 0
244 -269 0
-244 -268 269 0
228 -270 0
229 -270 0
-228 -229 270 0
-269 271 0
-270 271 0
269 270 -271 0
267 -272 0
271 -272 0
-267 -271 272 0
-264 273 0
-272 273 0
264 272 -273 0
273 -275 0
274 -275 0
-273 -274 275 0
-267 276 0
-271 276 0
267 271 -276 0
-259 277 0
-263 277 0
259 263 -277 0
276 -278 0
277 -278 0
-276 -277 278 0
278 -279 0
-274 -279 0
274 -278 279 0
-275 280 0
-279 280 0
275 279 -280 0
-254 281 0
-280 281 0
254 280 -281 0
-282 284 0
283 284 0
282 -283 -284 0
282 285 0
-283 285 0
-282 283 -285 0
284 -286 0
285 -286 0
-284 -285 286 0
-255 -287 0
-256 -287 0
255 256 287 0
-287 288 0
-263 288 0
263 287 -288 0
255 289 0
256 289 0
-255 -256 -289 0
288 -290 0
289 -290 0
-288 -289 290 0
286 -291 0
290 -291 0
-286 -290 291 0
-282 -292 0
283 -292 0
282 -283 292 0
282 -293 0
-283 -293 0
-282 283 293 0
-292 294 0
-293 294 0
292 293 -294 0
-255 295 0
-256 295 0
255 256 -295 0
295 -296 0
271 -296 0
-271 -295 296 0
255 -297 0
256 -297 0
-255 -256 297 0
-296 298 0
-297 298 0
296 297 -298 0
294 -299 0
298 -299 0
-294 -298 299 0
-291 300 0
-299 300 0
291 299 -300 0
300 -302 0
301 -302 0
-300 -301 302 0
-294 303 0
-298 303 0
294 298 -303 0
-286 304 0
-290 304 0
286 290 -304 0
303 -305 0
304 -305 0
-303 -304 305 0
305 -306 0
-301 -306 0
301 -305 306 0
-302 307 0
-306 307 0
302 306 -307 0
-281 308 0
-307 308 0
281 307 -308 0
-309 311 0
310 311 0
309 -310 -311 0
309 312 0
-310 312 0
-309 310 -312 0
311 -313 0
312 -313 0
-311 -312 313 0
-282 -314 0
-283 -314 0
282 283 314 0
-314 315 0
-290 315 0
290 314 -315 0
282 316 0
283 316 0
-282 -283 -316 0
315 -317 0
316 -317 0
-315 -316 317 0
313 -318 0
317 -318 0
-313 -317 318 0
-309 -319 0
310 -319 0
309 -310 319 0
309 -320 0
-310 -320 0
-309 310 320 0
-319 321 0
-320 321 0
319 320 -321 0
-282 322 0
-283 322 0
282 283 -322 0
322 -323 0
298 -323 0
-298 -322 323 0
282 -324 0
283 -324 0
-282 -283 324 0
-323 325 0
-324 325 0
323 324 -325 0
321 -326 0
325 -326 0
-321 -325 326 0
-318 327 0
-326 327 0
318 326 -327 0
327 -329 0
328 -329 0
-327 -328 329 0
-321 330 0
-325 330 0
321 325 -330 0
-313 331 0
-317 331 0
313 317 -331 0
330 -332 0
331 -332 0
-330 -331 332 0
332 -333 0
-328 -333 0
328 -332 333 0
-329 334 0
-333 334 0
329 333 -334 0
-308 335 0
-334 335 0
308 334 -335 0
-336 338 0
337 338 0
336 -337 -338 0
336 339 0
-337 339 0
-336 337 -339 0
338 -340 0
339 -340 0
-338 -339 340 0
-309 -341 0
-310 -341 0
309 310 341 0
-341 342 0
-317 342 0
317 341 -342 0
309 343 0
310 343 0
-309 -310 -343 0
342 -344 0
343 -344 0
-342 -343 344 0
340 -345 0
344 -345 0
-340 -344 345 0
-336 -346 0
337 -346 0
336 -337 346 0
336 -347 0
-337 -347 0
-336 337 347 0
-346 348 0
-347 348 0
346 347 -348 0
-309 349 0
-310 349 0
309 310 -349 0
349 -350 0
325 -350 0
-325 -349 350 0
309 -351 0
310 -351 0
-309 -310 351 0
-350 352 0
-351 352 0
350 351 -352 0
348 -353 0
352 -353 0
-348 -352 353 0
-345 354 0
-353 354 0
345 353 -354 0
354 -356 0
355 -356 0
-354 -355 356 0
-348 357 0
-352 357 0
348 352 -357 0
-340 358 0
-344 358 0
340 344 -358 0
357 -359 0
358 -359 0
-357 -358 359 0
359 -360 0
-355 -360 0
355 -359 360 0
-356 361 0
-360 361 0
356 360 -361 0
-335 362 0
-361 362 0
335 361 -362 0
-363 365 0
364 365 0
363 -364 -365 0
363 366 0
-364 366 0
-363 364 -366 0
365 -367 0
366 -367 0
-365 -366 367 0
-336 -368 0
-337 -368 0
336 337 368 0
-368 369 0
-344 369 0
344 368 -369 0
336 370 0
337 370 0
-336 -337 -370 0
369 -371 0
370 -371 0
-369 -370 371 0
367 -372 0
371 -372 0
-367 -371 372 0
-363 -373 0
364 -373 0
363 -364 373 0
363 -374 0
-364 -374 0
-363 364 374 0
-373 375 0
-374 375 0
373 374 -375 0
-336 376 0
-337 376 0
336 337 -376 0
376 -377 0
352 -377 0
-352 -376 377 0
336 -378 0
337 -378 0
-336 -337 378 0
-377 379 0
-378 379 0
377 378 -379 0
375 -380 0
379 -380 0
-375 -379 380 0
-372 381 0
-380 381 0
372 380 -381 0
381 -383 0
382 -383 0
-381 -382 383 0
-375 384 0
-379 384 0
375 379 -384 0
-367 385 0
-371 385 0
367 371 -385 0
384 -386 0
385 -386 0
-384 -385 386 0
386 -387 0
-382 -387 0
382 -386 387 0
-383 388 0
-387 388 0
383 387 -388 0
-362 389 0
-388 389 0
362 388 -389 0
-390 392 0
391 392 0
390 -391 -392 0
390 393 0
-391 393 0
-390 391 -393 0
392 -394 0
393 -394 0
-392 -393 394 0
-363 -395 0
-364 -395 0
363 364 395 0
-395 396 0
-371 396 0
371 395 -396 0
363 397 0
364 397 0
-363 -364 -397 0
396 -398 0
397 -398 0
-396 -397 398 0
394 -399 0
398 -399 0
-394 -398 399 0
-390 -400 0
391 -400 0
390 -391 400 0
390 -401 0
-391 -401 0
-390 391 401 0
-400 402 0
-401 402 0
400 401 -402 0
-363 403 0
-364 403 0
363 364 -403 0
403 -404 0
379 -404 0
-379 -403 404 0
363 -405 0
364 -405 0
-363 -364 405 0
-404 406 0
-405 406 0
404 405 -406 0
402 -407 0
406 -407 0
-402 -406 407 0
-399 408 0
-407 408 0
399 407 -408 0
408 -410 0
409 -410 0
-408 -409 410 0
-402 411 0
-406 411 0
402 406 -411 0
-394 412 0
-398 412 0
394 398 -412 0
411 -413 0
412 -413 0
-411 -412 413 0
413 -414 0
-409 -414 0
409 -413 414 0
-410 415 0
-414 415 0
410 414 -415 0
-389 416 0
-415 416 0
389 415 -416 0
-417 419 0
418 419 0
417 -418 -419 0
417 420 0
-418 420 0
-417 418 -420 0
419 -421 0
420 -421 0
-419 -420 421 0
-390 -422 0
-391 -422 0
390 391 422 0
-422 423 0
-398 423 0
398 422 -423 0
390 424 0
391 424 0
-390 -391 -424 0
423 -425 0
424 -425 0
-423 -424 425 0
421 -426 0
425 -426 0
-421 -425 426 0
-417 -427 0
418 -427 0
417 -418 427 0
417 -428 0
-418 -428 0
-417 418 428 0
-427 429 0
-428 429 0
427 428 -429 0
-390 430 0
-391 430 0
390 391 -430 0
430 -431 0
406 -431 0
-406 -430 431 0
390 -432 0
391 -432 0
-390 -391 432 0
-431 433 0
-432 433 0
431 432 -433 0
429 -434 0
433 -434 0
-429 -433 434 0
-426 435 0
-434 435 0
426 434 -435 0
435 -437 0
436 -437 0
-435 -436 437 0
-429 438 0
-433 438 0
429 433 -438 0
-421 439 0
-425 439 0
421 425 -439 0
438 -440 0
439 -440 0
-438 -439 440 0
440 -441 0
-436 -441 0
436 -440 441 0
-437 442 0
-441 442 0
437 441 -442 0
-416 443 0
-442 443 0
416 442 -443 0
-444 446 0
445 446 0
444 -445 -446 0
444 447 0
-445 447 0
-444 445 -447 0
446 -448 0
447 -448 0
-446 -447 448 0
-417 -449 0
-418 -449 0
417 418 449 0
-449 450 0
-425 450 0
425 449 -450 0
417 451 0
418 451 0
-417 -418 -451 0
450 -452 0
451 -452 0
-450 -451 452 0
448 -453 0
452 -453 0
-448 -452 453 0
-444 -454 0
445 -454 0
444 -445 454 0
444 -455 0
-445 -455 0
-444 445 455 0
-454 456 0
-455 456 0
454 455 -456 0
-417 457 0
-418 457 0
417 418 -457 0
457 -458 0
433 -458 0
-433 -457 458 0
417 -459 0
418 -459 0
-417 -418 459 0
-458 460 0
-459 460 0
458 459 -460 0
456 -461 0
460 -461 0
-456 -460 461 0
-453 462 0
-461 462 0
453 461 -462 0
462 -464 0
463 -464 0
-462 -463 464 0
-456 465 0
-460 465 0
456 460 -465 0
-448 466 0
-452 466 0
448 452 -466 0
465 -467 0
466 -467 0
-465 -466 467 0
467 -468 0
-463 -468 0
463 -467 468 0
-464 469 0
-468 469 0
464 468 -469 0
-443 470 0
-469 470 0
443 469 -470 0
-471 473 0
472 473 0
471 -472 -473 0
471 474 0
-472 474 0
-471 472 -474 0
473 -475 0
474 -475 0
-473 -474 475 0
-444 -476 0
-445 -476 0
444 445 476 0
-476 477 0
-452 477 0
452 476 -477 0
444 478 0
445 478 0
-444 -445 -478 0
477 -479 0
478 -479 0
-477 -478 479 0
475 -480 0
479 -480 0
-475 -479 480 0
-471 -481 0
472 -481 0
471 -472 481 0
471 -482 0
-472 -482 0
-471 472 482 0
-481 483 0
-482 483 0
481 482 -483 0
-444 484 0
-445 484 0
444 445 -484 0
484 -485 0
460 -485 0
-460 -484 485 0
444 -486 0
445 -486 0
-444 -445 486 0
-485 487 0
-486 487 0
485 486 -487 0
483 -488 0
487 -488 0
-483 -487 488 0
-480 489 0
-488 489 0
480 488 -489 0
489 -491 0
490 -491 0
-489 -490 491 0
-483 492 0
-487 492 0
483 487 -492 0
-475 493 0
-479 493 0
475 479 -493 0
492 -494 0
493 -494 0
-492 -493 494 0
494 -495 0
-490 -495 0
490 -494 495 0
-491 496 0
-495 496 0
491 495 -496 0
-470 497 0
-496 497 0
470 496 -497 0
-471 498 0
-472 498 0
471 472 -498 0
498 -499 0
487 -499 0
-487 -498 499 0
471 -500 0
472 -500 0
-471 -472 500 0
-499 501 0
-500 501 0
499 500 -501 0
-501 503 0
-502 503 0
501 502 -503 0
-471 -504 0
-472 -504 0
471 472 504 0
-504 505 0
-479 505 0
479 504 -505 0
471 506 0
472 506 0
-471 -472 -506 0
505 -507 0
506 -507 0
-505 -506 507 0
-507 508 0
502 508 0
-502 507 -508 0
503 -509 0
508 -509 0
-503 -508 509 0
509 -511 0
510 -511 0
-509 -510 511 0
507 -512 0
-502 -512 0
502 -507 512 0
501 -513 0
502 -513 0
-501 -502 513 0
-512 514 0
-513 514 0
512 513 -514 0
514 -515 0
-510 -515 0
510 -514 515 0
-511 516 0
-515 516 0
511 515 -516 0
516 -518 0
517 -518 0
-516 -517 518 0
-514 519 0
510 519 0
-510 514 -519 0
-509 520 0
-510 520 0
509 510 -520 0
519 -521 0
520 -521 0
-519 -520 521 0
521 -522 0
-517 -522 0
517 -521 522 0
-518 523 0
-522 523 0
518 522 -523 0
-497 524 0
-523 524 0
497 523 -524 0
7 525 0
-524 525 0
-7 524 -525 0
-27 526 0
23 526 0
-23 27 -526 0
-22 527 0
-23 527 0
22 23 -527 0
526 -528 0
527 -528 0
-526 -527 528 0
-35 529 0
32 529 0
-32 35 -529 0
-31 530 0
-32 530 0
31 32 -530 0
529 -531 0
530 -531 0
-529 -530 531 0
528 -532 0
531 -532 0
-528 -531 532 0
-62 533 0
58 533 0
-58 62 -533 0
-57 534 0
-58 534 0
57 58 -534 0
533 -535 0
534 -535 0
-533 -534 535 0
532 -536 0
535 -536 0
-532 -535 536 0
-89 537 0
85 537 0
-85 89 -537 0
-84 538 0
-85 538 0
84 85 -538 0
537 -539 0
538 -539 0
-537 -538 539 0
536 -540 0
539 -540 0
-536 -539 540 0
-116 541 0
112 541 0
-112 116 -541 0
-111 542 0
-112 542 0
111 112 -542 0
541 -543 0
542 -543 0
-541 -542 543 0
540 -544 0
543 -544 0
-540 -543 544 0
-143 545 0
139 545 0
-139 143 -545 0
-138 546 0
-139 546 0
138 139 -546 0
545 -547 0
546 -547 0
-545 -546 547 0
544 -548 0
547 -548 0
-544 -547 548 0
-170 549 0
166 549 0
-166 170 -549 0
-165 550 0
-166 550 0
165 166 -550 0
549 -551 0
550 -551 0
-549 -550 551 0
548 -552 0
551 -552 0
-548 -551 552 0
-197 553 0
193 553 0
-193 197 -553 0
-192 554 0
-193 554 0
192 193 -554 0
553 -555 0
554 -555 0
-553 -554 555 0
552 -556 0
555 -556 0
-552 -555 556 0
-224 557 0
220 557 0
-220 224 -557 0
-219 558 0
-220 558 0
219 220 -558 0
557 -559 0
558 -559 0
-557 -558 559 0
556 -560 0
559 -560 0
-556 -559 560 0
-251 561 0
247 561 0
-247 251 -561 0
-246 562 0
-247 562 0
246 247 -562 0
561 -563 0
562 -563 0
-561 -562 563 0
560 -564 0
563 -564 0
-560 -563 564 0
-278 565 0
274 565 0
-274 278 -565 0
-273 566 0
-274 566 0
273 274 -566 0
565 -567 0
566 -567 0
-565 -566 567 0
564 -568 0
567 -568 0
-564 -567 568 0
-305 569 0
301 569 0
-301 305 -569 0
-300 570 0
-301 570 0
300 301 -570 0
569 -571 0
570 -571 0
-569 -570 571 0
568 -572 0
571 -572 0
-568 -571 572 0
-332 573 0
328 573 0
-328 332 -573 0
-327 574 0
-328 574 0
327 328 -574 0
573 -575 0
574 -575 0
-573 -574 575 0
572 -576 0
575 -576 0
-572 -575 576 0
-359 577 0
355 577 0
-355 359 -577 0
-354 578 0
-355 578 0
354 355 -578 0
577 -579 0
578 -579 0
-577 -578 579 0
576 -580 0
579 -580 0
-576 -579 580 0
-386 581 0
382 581 0
-382 386 -581 0
-381 582 0
-382 582 0
381 382 -582 0
581 -583 0
582 -583 0
-581 -582 583 0
580 -584 0
583 -584 0
-580 -583 584 0
-413 585 0
409 585 0
-409 413 -585 0
-408 586 0
-409 586 0
408 409 -586 0
585 -587 0
586 -587 0
-585 -586 587 0
584 -588 0
587 -588 0
-584 -587 588 0
-440 589 0
436 589 0
-436 440 -589 0
-435 590 0
-436 590 0
435 436 -590 0
589 -591 0
590 -591 0
-589 -590 591 0
588 -592 0
591 -592 0
-588 -591 592 0
-467 593 0
463 593 0
-463 467 -593 0
-462 594 0
-463 594 0
462 463 -594 0
593 -595 0
594 -595 0
-593 -594 595 0
592 -596 0
595 -596 0
-592 -595 596 0
-494 597 0
490 597 0
-490 494 -597 0
-489 598 0
-490 598 0
489 490 -598 0
597 -599 0
598 -599 0
-597 -598 599 0
596 -600 0
599 -600 0
-596 -599 600 0
-521 601 0
517 601 0
-517 521 -601 0
-516 602 0
-517 602 0
516 517 -602 0
601 -603 0
602 -603 0
-601 -602 603 0
600 -604 0
603 -604 0
-600 -603 604 0
-7 605 0
-604 605 0
7 604 -605 0
1 -608 0
607 -608 0
-1 -607 608 0
606 609 0
-608 609 0
-606 608 -609 0
1 610 0
607 610 0
-1 -607 -610 0
-606 611 0
-610 611 0
606 610 -611 0
7 612 0
-7 -612 0
606 613 0
-606 -613 0
612 -614 0
613 -614 0
-612 -613 614 0
6 -615 0
525 -615 0
605 -615 0
609 -615 0
611 -615 0
614 -615 0
-6 -525 -605 -609 -611 -614 615 0
-5 616 0
-615 616 0
5 615 -616 0
616 0

